20
 N2C1W1_A 
 100 100 0 
99
97
95
95
94
92
91
89
86
86
85
84
80
80
80
80
80
79
76
76
75
74
73
71
71
69
65
64
64
64
63
63
62
60
59
58
57
54
53
52
51
50
48
48
48
46
44
43
43
43
43
42
41
40
40
39
38
38
38
38
37
37
37
37
36
35
34
33
32
30
29
28
26
26
26
24
23
22
21
21
19
18
17
16
16
15
14
13
12
12
11
9
9
8
8
7
6
6
5
1
 N2C1W1_B 
 100 100 0 
100
99
99
98
98
96
96
93
89
84
84
83
83
82
81
80
79
79
79
79
78
77
76
75
74
71
71
70
69
69
68
67
67
66
62
56
55
54
53
51
50
50
50
49
48
48
47
45
45
45
42
42
42
41
41
40
40
39
38
37
36
36
34
34
33
32
32
31
29
28
28
28
26
24
24
22
22
22
21
18
18
17
17
15
14
14
12
12
11
10
10
9
8
7
7
5
3
3
2
2
 N2C1W1_C 
 100 100 0 
98
97
94
92
91
91
90
89
86
85
84
83
82
81
78
76
75
73
73
72
72
71
70
70
69
69
66
64
60
60
59
58
57
56
55
54
53
52
52
51
50
49
49
48
47
47
45
43
43
43
42
42
42
42
40
39
39
36
35
34
34
34
33
32
30
30
30
29
29
28
25
23
22
22
22
22
22
20
20
19
19
18
16
16
16
15
15
15
13
12
12
10
9
8
6
5
4
4
2
2
 N2C1W1_D 
 100 100 0 
99
98
96
93
93
92
90
89
89
89
88
88
87
86
84
84
81
80
80
80
80
78
78
77
75
73
72
70
69
68
65
65
64
63
63
63
62
61
60
58
58
58
57
56
54
52
51
49
49
46
45
45
44
44
42
42
41
41
38
38
37
36
36
34
34
31
30
30
28
27
26
25
24
24
24
23
22
21
21
18
17
17
16
14
13
12
12
11
10
10
9
8
6
5
5
4
4
3
2
1
 N2C1W1_E 
 100 100 0 
100
99
99
98
96
95
95
95
93
93
92
92
92
91
90
89
89
89
87
87
87
85
84
81
81
80
79
77
74
74
74
73
73
72
71
70
70
66
66
65
65
65
64
63
63
63
63
63
61
57
56
54
52
52
51
49
48
46
44
44
44
42
40
40
40
38
38
35
34
31
31
31
30
27
27
25
25
24
21
21
21
18
17
17
16
16
16
15
15
11
11
9
9
9
8
5
5
5
3
1
 N2C1W1_F 
 100 100 0 
100
100
99
97
96
96
95
95
95
94
93
93
92
92
91
89
85
84
78
76
76
76
76
75
73
73
70
70
69
67
67
66
63
62
60
60
60
58
56
55
53
53
52
51
50
50
50
49
49
48
47
47
46
45
45
42
41
41
39
37
36
36
35
34
34
30
30
29
29
28
28
26
26
23
22
22
22
22
21
21
21
19
18
17
17
15
14
14
11
10
8
7
7
6
5
2
2
1
1
1
 N2C1W1_G 
 100 100 0 
99
96
93
93
93
92
92
91
90
89
88
88
88
87
87
86
84
84
82
81
80
80
80
79
79
79
79
76
75
75
75
75
75
74
74
73
71
68
64
62
61
61
61
60
58
58
58
58
57
57
57
55
54
53
52
51
51
51
50
50
47
45
44
41
40
39
39
39
38
36
36
35
35
34
33
32
31
30
30
29
29
29
28
24
22
21
19
19
18
10
9
8
8
7
6
5
5
4
3
2
 N2C1W1_H 
 100 100 0 
98
98
98
98
94
94
94
93
92
91
89
89
87
86
85
84
80
80
78
76
76
75
73
73
72
71
71
71
70
69
67
65
64
64
62
62
62
62
59
56
55
55
54
53
53
53
52
52
50
49
49
49
49
49
45
44
43
43
43
43
43
39
38
38
38
37
37
36
36
34
34
33
29
29
29
28
27
27
27
25
22
22
19
17
17
17
16
15
14
14
14
13
13
13
10
8
6
6
5
3
 N2C1W1_I 
 100 100 0 
99
98
97
96
95
95
94
94
94
90
88
86
86
86
86
85
85
85
85
85
83
83
82
81
81
80
80
79
79
78
77
77
76
76
76
75
75
74
74
74
72
71
69
67
67
66
66
65
65
63
61
61
59
59
57
57
56
56
55
54
53
49
48
46
45
41
39
39
38
38
37
37
36
36
35
32
30
30
30
28
28
28
27
26
26
25
24
23
22
22
17
17
13
11
10
10
6
3
2
1
 N2C1W1_J 
 100 100 0 
100
100
99
98
95
94
93
93
93
92
92
91
91
91
88
88
87
86
85
83
81
81
81
80
80
80
79
77
77
77
76
75
73
71
71
71
70
69
68
67
66
65
63
60
60
59
59
59
59
56
54
54
54
54
53
53
52
51
51
49
46
44
44
43
42
42
41
41
41
39
35
34
34
32
32
31
30
29
28
27
22
22
21
21
20
17
14
12
12
11
11
10
10
8
8
6
6
5
5
4
 N2C1W1_K 
 100 100 0 
100
99
98
97
97
97
97
97
92
91
91
91
88
86
86
85
84
84
83
81
80
79
79
79
78
77
77
75
75
75
74
74
71
71
70
69
64
64
63
63
62
62
61
61
56
56
56
56
55
53
53
52
52
51
49
48
46
44
44
43
43
42
42
40
38
37
36
35
34
32
32
31
30
29
29
28
28
28
27
26
24
24
22
20
20
18
17
16
16
14
13
13
12
11
10
8
6
4
2
1
 N2C1W1_L 
 100 100 0 
100
100
98
97
96
96
95
95
95
94
94
94
93
92
90
87
87
84
83
83
83
81
80
77
77
77
77
75
74
74
73
72
71
71
71
70
70
70
69
69
67
63
63
63
63
62
58
55
55
55
54
53
53
51
49
49
49
47
45
42
41
39
38
35
34
29
28
28
28
28
27
27
26
26
25
25
25
24
24
23
21
19
17
15
15
15
14
12
11
7
7
7
6
5
5
5
2
2
1
1
 N2C1W1_M 
 100 100 0 
97
96
95
94
90
88
88
87
86
85
84
84
82
81
81
80
80
80
79
79
78
74
73
69
69
68
68
67
67
65
64
63
63
60
60
58
57
56
55
53
53
51
51
51
47
47
46
46
45
41
41
39
38
37
37
37
37
35
34
33
33
33
33
32
31
31
31
30
30
28
22
22
20
20
20
20
19
19
17
17
17
16
16
15
13
13
12
12
10
10
9
8
8
8
5
5
5
4
4
1
 N2C1W1_N 
 100 100 0 
100
98
97
95
90
90
89
89
87
87
85
83
82
82
81
81
81
80
79
78
77
76
74
73
72
70
70
68
67
64
63
63
60
60
58
58
57
57
55
54
54
53
52
52
52
51
50
50
50
48
45
45
45
44
44
43
41
38
37
34
34
34
33
32
32
31
30
30
30
30
26
25
24
23
20
19
19
19
18
17
16
15
13
12
12
11
11
11
11
10
9
8
8
8
7
4
3
3
2
1
 N2C1W1_O 
 100 100 0 
100
100
98
97
95
94
92
92
92
91
90
89
89
88
88
88
87
85
84
83
81
79
79
77
77
76
72
70
70
69
69
68
64
63
62
62
61
61
60
59
59
58
57
55
52
52
51
47
47
46
43
43
42
37
36
35
35
35
35
34
32
32
31
31
29
29
28
28
25
23
22
22
21
19
17
16
15
14
12
11
11
11
11
11
11
10
8
8
7
6
5
5
4
4
3
3
2
2
1
1
 N2C1W1_P 
 100 100 0 
99
99
96
96
95
93
92
92
91
91
90
90
88
88
87
86
83
83
83
83
81
81
80
80
78
78
76
76
74
73
72
72
70
69
69
68
67
66
58
57
56
55
55
55
54
54
54
54
53
51
51
51
48
48
47
47
47
46
46
46
45
44
43
43
43
42
41
40
40
35
34
31
29
26
24
24
23
23
22
22
22
21
20
18
17
17
15
14
12
12
11
9
9
8
6
4
3
3
1
1
 N2C1W1_Q 
 100 100 0 
99
98
97
97
96
94
94
94
93
90
84
82
81
78
76
76
75
75
73
70
70
69
69
66
66
65
65
65
63
61
60
59
59
59
58
58
56
55
54
54
53
53
50
50
50
48
48
47
46
45
45
45
45
41
41
40
39
39
36
36
35
35
34
33
33
31
30
29
28
27
26
26
24
24
19
19
19
18
18
18
18
16
14
14
13
12
11
11
10
10
10
7
7
6
6
6
4
3
1
1
 N2C1W1_R 
 100 100 0 
100
100
99
97
97
96
96
95
94
94
94
94
92
92
91
90
88
87
85
84
84
83
82
81
80
78
75
74
72
72
71
70
69
69
68
65
64
64
62
61
61
60
59
58
58
58
57
57
55
54
54
54
53
53
50
49
48
47
47
46
46
45
45
44
43
42
40
36
36
35
34
34
33
32
31
30
30
26
26
25
24
23
23
22
22
21
20
19
18
18
17
17
17
15
9
8
7
6
3
3
 N2C1W1_S 
 100 100 0 
100
99
96
96
95
94
94
93
91
89
89
88
81
80
75
74
73
72
69
69
69
68
64
63
63
62
61
58
57
57
57
57
56
56
54
54
54
51
49
49
49
48
48
48
48
48
48
47
47
47
44
43
43
41
40
40
39
38
38
36
35
33
31
30
30
30
30
29
29
28
25
25
23
23
20
19
18
16
15
14
14
14
12
12
11
10
9
9
8
8
8
7
7
7
5
4
4
3
2
2
 N2C1W1_T 
 100 100 0 
100
100
100
98
97
96
95
94
92
91
91
90
90
90
88
87
87
85
84
83
81
78
76
74
71
71
70
68
68
66
66
65
64
63
63
62
62
61
59
59
59
59
59
57
57
56
54
53
52
51
50
50
49
46
45
43
41
41
40
40
40
39
36
35
34
33
33
32
32
32
30
30
29
29
29
28
27
27
27
23
21
21
20
20
19
19
17
15
15
15
11
9
6
5
5
5
4
3
2
1
